Route #1: 27 1 16 49 37 44 4 18 47 
Route #2: 46 12 15 19 41 13 40 42 45 33 17 
Route #3: 32 11 29 2 22 28 31 43 24 25 
Route #4: 5 38 9 30 10 39 34 21 20 50 
Route #5: 3 35 36 8 26 7 23 48 14 6 
cost 731.441
execution_time 23.333
